c preprocessed version of BN_79, 33 vertices, 174 edges
p td 33 174
0 1
0 7
3 0
8 0
18 0
9 0
21 0
17 0
2 1
3 1
18 1
12 1
17 1
3 2
12 2
9 2
14 2
3 4
3 7
12 3
9 3
14 3
19 3
4 5
12 4
9 4
14 4
6 5
12 5
11 5
6 7
6 16
15 6
11 6
20 6
8 7
16 7
11 7
9 7
14 7
13 7
19 7
17 7
9 8
21 8
17 8
10 9
14 9
13 9
17 9
10 11
10 14
10 15
10 18
10 13
10 19
20 10
17 10
11 12
13 11
19 11
17 11
13 14
19 13
17 13
14 15
14 16
19 14
22 14
17 14
15 16
15 18
22 15
17 16
17 18
17 19
17 21
17 22
20 17
20 19
21 20
22 20
21 22
23 32
23 1
23 26
23 30
23 2
23 3
23 25
23 31
23 27
23 12
23 29
23 24
23 28
24 32
24 26
24 30
24 25
24 27
24 8
24 31
24 29
24 14
24 13
24 28
24 17
25 32
25 0
25 26
25 30
25 27
25 7
25 8
25 11
25 16
25 31
25 29
25 14
25 28
25 21
25 17
26 32
26 30
26 4
26 3
26 31
26 27
26 29
26 9
26 28
27 32
27 1
27 30
27 6
27 15
27 31
27 3
27 2
27 12
27 29
27 14
27 28
27 22
27 20
27 17
28 32
28 30
28 31
28 29
28 10
28 19
28 20
29 32
29 30
29 31
29 12
29 11
30 32
30 4
30 31
30 14
31 32
31 3
31 14
32 4
32 7
32 6
32 3
32 9
32 14
32 10
32 19
